ALGO = Fast
EDIFF = 0.001
ENCUT = 520
IBRION = 2
ICHARG = 1
ISIF = 3
ISMEAR = -5
ISPIN = 2
LDAU = .true.
LDAUJ = 0 0 0
LDAUL = 0 2 0
LDAUPRINT = 1
LDAUTYPE = 2
LDAUU = 0 3.9 0
LMAXMIX = 6
LORBIT = 11
LREAL = Auto
LWAVE = .false.
MAGMOM = 4*0.6 4*4.0 12*0.6
NELM = 100
NSW = 99
PREC = Accurate
SIGMA = 0.05
