La4 Mn4 O12
1.0
5.500600 0.000000 0.000000
0.000000 7.774400 0.000000
0.000000 0.000000 5.525300
La Mn O
4 4 12
direct
0.024600 0.250000 0.490700 La3+
0.524600 0.250000 0.009300 La3+
0.975400 0.750000 0.509300 La3+
0.475400 0.750000 0.990700 La3+
0.500000 0.000000 0.500000 Mn3+
0.000000 0.500000 0.000000 Mn3+
0.500000 0.500000 0.500000 Mn3+
0.000000 0.000000 0.000000 Mn3+
0.494300 0.250000 0.562100 O2-
0.994300 0.250000 0.937900 O2-
0.505700 0.750000 0.437900 O2-
0.005700 0.750000 0.062100 O2-
0.778700 0.034900 0.270800 O2-
0.278700 0.465100 0.229200 O2-
0.221300 0.534900 0.729200 O2-
0.721300 0.965100 0.770800 O2-
0.221300 0.965100 0.729200 O2-
0.721300 0.534900 0.770800 O2-
0.778700 0.465100 0.270800 O2-
0.278700 0.034900 0.229200 O2-
