pymatgen v1.1 with grid density = 1344 / atom
0
Gamma
4 3 4
